%
% Data from Mozart/Oz 
% http://www.mozart-oz.org/home/doc/fdt/node47.html#section.scheduling.house
% Building a house schediling problem.
%
% To be used with the MiniZinc model
% http://www.hakank.org/minizinc/building_a_house_model.mzn
% 

num_tasks = 10;

% tasks =
%        ["erecting_walls",
%         "carpentry_for_roof",
%         "roof",
%         "installations",
%         "facade_painting",
%         "windows",
%         "garden",
%         "ceilings",
%         "painting",
%         "moving_in"];

duration =  [ 7, 3, 1, 8, 2, 1, 1, 3, 2, 1];
height   =  [ 1, 1, 1, 1, 1, 1, 1, 1, 1, 1];

num_precedences  = 13;
precedences = array2d(1..num_precedences, 1..2, 
[
% a   b
  1, 2,
% b   c
  2, 3,
% a   d
  1, 4,
% c   e
  3, 5,
% d   e
  4, 5,
% c   f
  3, 6,
% d   f
  4, 6,
% c   g
  3, 7,
% d   g
  4, 7,
% a   h
  1, 8,
% f   i
  6, 9,
% h   i
  8, 9,
% i   j
  9, 10
]);
